! BP86 def2-SVP tightscf notrah




*xyz 0 1
H 0.0 0.0 0.0 
F 0.0 0.0 1.0 
*
